
Gurobi 6.5.2 (linux64) logging started Tue Sep 20 21:16:18 2016


Gurobi 6.5.2 (linux64) logging started Tue Sep 20 21:16:18 2016

Optimize a model with 21 rows, 24 columns and 57 nonzeros
Coefficient statistics:
  Matrix range    [1e+00, 2e+00]
  Objective range [1e+01, 8e+01]
  Bounds range    [1e+00, 1e+00]
  RHS range       [1e+00, 1e+00]
Found heuristic solution: objective 467
Presolve removed 20 rows and 19 columns
Presolve time: 0.00s
Presolved: 1 rows, 5 columns, 5 nonzeros
Variable types: 0 continuous, 5 integer (5 binary)

Root relaxation: objective 4.150000e+02, 0 iterations, 0.00 seconds

    Nodes    |    Current Node    |     Objective Bounds      |     Work
 Expl Unexpl |  Obj  Depth IntInf | Incumbent    BestBd   Gap | It/Node Time

     0     0  428.50000    0    2  467.00000  428.50000  8.24%     -    0s
H    0     0                     442.0000000  428.50000  3.05%     -    0s

Cutting planes:
  Gomory: 1
  Lazy constraints: 1

Explored 0 nodes (2 simplex iterations) in 0.01 seconds
Thread count was 8 (of 8 available processors)

Optimal solution found (tolerance 1.00e-04)
Best objective 4.420000000000e+02, best bound 4.420000000000e+02, gap 0.0%
